(declare-const BAV1 Bool)
(declare-const BAV2 Bool)
(declare-const GEN2 Real)
(declare-const GEN1 Real)
(declare-const x Real)
(declare-const y Real)
(declare-const z Real)
(assert (= (^ x GEN1) y))
(assert (= (^ z GEN2) y))
(apply purify-arith)
(apply (! purify-arith :complete false))
(assert (= BAV1 (= (^ x GEN1) y)))
(assert (= BAV2 (= (^ z GEN2) y)))